qbf_easy_train/easy_2626_UNSAT.qdimacs
p cnf 28 80
a 11 20 23 0
e 1 2 3 4 5 6 7 8 9 10 12 13 14 15 16 17 18 19 21 22 24 25 26 27 28 0
3 -1 0
3 2 0
1 -2 -3 0
-3 4 -5 0
3 -4 -5 0
-3 -4 5 0
3 4 5 0
5 -6 -7 0
-5 6 -7 0
5 6 7 0
-5 -6 7 0
-1 7 -8 0
1 -7 -8 0
-1 -7 8 0
1 7 8 0
-8 -9 -10 0
8 9 -10 0
-8 9 10 0
8 -9 10 0
-3 1 -11 0
3 -1 -11 0
-3 -1 11 0
3 1 11 0
13 11 0
13 12 0
-11 -12 -13 0
14 10 0
14 -13 0
-10 13 -14 0
15 -9 0
15 2 0
9 -2 -15 0
2 15 -16 0
-2 -15 -16 0
2 -15 16 0
-2 15 16 0
17 11 0
17 16 0
-11 -16 -17 0
-19 -6 0
-19 18 0
6 -18 19 0
-21 -19 0
-21 20 0
19 -20 21 0
-22 -3 0
-22 5 0
3 -5 22 0
-2 -22 -23 0
2 22 -23 0
-2 22 23 0
2 -22 23 0
-21 23 -24 0
21 -23 -24 0
-21 -23 24 0
21 23 24 0
-17 -24 -25 0
17 24 -25 0
-17 24 25 0
17 -24 25 0
19 2 -26 0
-19 -2 -26 0
19 -2 26 0
-19 2 26 0
25 26 -27 0
-25 -26 -27 0
25 -26 27 0
-25 26 27 0
14 27 -28 0
-14 -27 -28 0
14 -27 28 0
-14 27 28 0
-28 3 1 18 -20 24 -2 0
22 26 9 15 -2 0
2 27 23 -7 0
-28 27 -12 0
-27 -22 14 -8 -1 11 28 0
3 2 6 25 14 0
-8 27 25 0
28 0
