sat_easy_train/easy_2626_UNSAT.dimacs
p cnf 137 460
3 -1 0
3 -2 0
1 2 -3 0
7 -5 0
7 6 0
5 -6 -7 0
-9 7 0
-9 8 0
-7 -8 9 0
10 5 0
10 -6 0
-5 6 -10 0
-13 -4 0
-13 12 0
4 -12 13 0
14 -11 0
14 -13 0
11 13 -14 0
10 -14 -15 0
-10 14 -15 0
10 14 15 0
-10 -14 15 0
-10 15 -16 0
10 -15 -16 0
-10 -15 16 0
10 15 16 0
-17 9 0
-17 -16 0
-9 16 17 0
-18 -5 0
-18 12 0
5 -12 18 0
-17 -18 -19 0
17 18 -19 0
-17 18 19 0
17 -18 19 0
20 4 0
20 19 0
-4 -19 -20 0
-21 -3 0
-21 -20 0
3 20 21 0
-22 3 0
-22 -2 0
-3 2 22 0
23 -22 0
23 2 0
22 -2 -23 0
25 -23 0
25 -24 0
23 24 -25 0
-21 25 -26 0
21 -25 -26 0
-21 -25 26 0
21 25 26 0
4 -8 -27 0
-4 8 -27 0
4 8 27 0
-4 -8 27 0
-28 26 0
-28 27 0
-26 -27 28 0
-30 1 0
-30 -29 0
-1 29 30 0
-32 -10 0
-32 -31 0
10 31 32 0
33 29 0
33 -6 0
-29 6 -33 0
33 -29 -34 0
-33 29 -34 0
33 29 34 0
-33 -29 34 0
35 34 0
35 15 0
-34 -15 -35 0
36 32 0
36 35 0
-32 -35 -36 0
37 30 0
37 36 0
-30 -36 -37 0
-39 38 0
-39 34 0
-38 -34 39 0
40 37 0
40 39 0
-37 -39 -40 0
-41 -22 -42 0
41 22 -42 0
-41 22 42 0
41 -22 42 0
-43 -42 0
-43 -5 0
42 5 43 0
-44 -23 0
-44 43 0
23 -43 44 0
45 -43 0
45 -34 0
43 34 -45 0
46 44 0
46 -45 0
-44 45 -46 0
-47 46 0
-47 -43 0
-46 43 47 0
-48 47 0
-48 24 0
-47 -24 48 0
-40 48 -49 0
40 -48 -49 0
-40 -48 49 0
40 48 49 0
-50 28 0
-50 49 0
-28 -49 50 0
-51 19 0
-51 34 0
-19 -34 51 0
-31 12 -52 0
31 -12 -52 0
-31 -12 52 0
31 12 52 0
53 18 0
53 -52 0
-18 52 -53 0
54 -53 0
54 -25 0
53 25 -54 0
51 54 -55 0
-51 -54 -55 0
51 -54 55 0
-51 54 55 0
-56 -25 0
-56 -14 0
25 14 56 0
57 -41 0
57 -44 0
41 44 -57 0
-58 6 0
-58 57 0
-6 -57 58 0
58 -4 -59 0
-58 4 -59 0
58 4 59 0
-58 -4 59 0
-59 2 -60 0
59 -2 -60 0
-59 -2 60 0
59 2 60 0
-61 -41 -62 0
61 41 -62 0
-61 41 62 0
61 -41 62 0
60 62 -63 0
-60 -62 -63 0
60 -62 63 0
-60 62 63 0
10 41 -64 0
-10 -41 -64 0
10 -41 64 0
-10 41 64 0
65 64 0
65 -11 0
-64 11 -65 0
-66 63 0
-66 65 0
-63 -65 66 0
67 -56 0
67 66 0
56 -66 -67 0
24 -64 -68 0
-24 64 -68 0
24 64 68 0
-24 -64 68 0
-69 5 0
-69 -2 0
-5 2 69 0
-70 -68 0
-70 69 0
68 -69 70 0
71 67 0
71 -70 0
-67 70 -71 0
-72 -55 0
-72 -71 0
55 71 72 0
-11 -3 -73 0
11 3 -73 0
-11 3 73 0
11 -3 73 0
-12 24 -74 0
12 -24 -74 0
-12 -24 74 0
12 24 74 0
75 73 0
75 -74 0
-73 74 -75 0
76 10 0
76 -16 0
-10 16 -76 0
76 -29 -77 0
-76 29 -77 0
76 29 77 0
-76 -29 77 0
-75 77 -78 0
75 -77 -78 0
-75 -77 78 0
75 77 78 0
-80 79 0
-80 -61 0
-79 61 80 0
-81 -4 0
-81 6 0
4 -6 81 0
2 81 -82 0
-2 -81 -82 0
2 -81 82 0
-2 81 82 0
-83 5 0
-83 82 0
-5 -82 83 0
-80 -83 -84 0
80 83 -84 0
-80 83 84 0
80 -83 84 0
-85 11 0
-85 9 0
-11 -9 85 0
-85 -47 -86 0
85 47 -86 0
-85 47 86 0
85 -47 86 0
-87 -84 0
-87 -86 0
84 86 87 0
45 41 -88 0
-45 -41 -88 0
45 -41 88 0
-45 41 88 0
-89 -87 0
-89 88 0
87 -88 89 0
90 13 0
90 2 0
-13 -2 -90 0
-91 -47 0
-91 90 0
47 -90 91 0
93 92 0
93 53 0
-92 -53 -93 0
-94 -58 0
-94 -11 0
58 11 94 0
-95 24 0
-95 22 0
-24 -22 95 0
-35 -31 -96 0
35 31 -96 0
-35 31 96 0
35 -31 96 0
-97 95 0
-97 96 0
-95 -96 97 0
-98 94 0
-98 97 0
-94 -97 98 0
-93 -98 -99 0
93 98 -99 0
-93 98 99 0
93 -98 99 0
43 33 -100 0
-43 -33 -100 0
43 -33 100 0
-43 33 100 0
101 -33 0
101 -100 0
33 100 -101 0
95 101 -102 0
-95 -101 -102 0
95 -101 102 0
-95 101 102 0
-103 7 0
-103 -21 0
-7 21 103 0
-104 102 0
-104 103 0
-102 -103 104 0
-105 -5 0
-105 -11 0
5 11 105 0
105 -106 0
-105 -106 0
107 -104 0
107 -106 0
104 106 -107 0
108 -101 0
108 -43 0
101 43 -108 0
-109 25 0
-109 -2 0
-25 2 109 0
-45 -76 -110 0
45 76 -110 0
-45 76 110 0
45 -76 110 0
109 110 -111 0
-109 -110 -111 0
109 -110 111 0
-109 110 111 0
108 -111 -112 0
-108 111 -112 0
108 111 112 0
-108 -111 112 0
107 112 -113 0
-107 -112 -113 0
107 -112 113 0
-107 112 113 0
114 -99 0
114 113 0
99 -113 -114 0
-115 91 0
-115 114 0
-91 -114 115 0
116 89 0
116 -115 0
-89 115 -116 0
117 -78 0
117 116 0
78 -116 -117 0
-118 82 0
-118 -34 0
-82 34 118 0
119 -95 0
119 -20 0
95 20 -119 0
-120 118 0
-120 -119 0
-118 119 120 0
121 -117 0
121 -120 0
117 120 -121 0
122 44 0
122 17 0
-44 -17 -122 0
24 -34 -123 0
-24 34 -123 0
24 34 123 0
-24 -34 123 0
-124 -38 0
-124 6 0
38 -6 124 0
-125 38 0
-125 124 0
-38 -124 125 0
-125 105 -126 0
125 -105 -126 0
-125 -105 126 0
125 105 126 0
-127 123 0
-127 -126 0
-123 126 127 0
-122 127 -128 0
122 -127 -128 0
-122 -127 128 0
122 127 128 0
-129 53 0
-129 -81 0
-53 81 129 0
-130 90 0
-130 -18 0
-90 18 130 0
131 -129 0
131 -130 0
129 130 -131 0
132 -90 0
132 1 0
90 -1 -132 0
133 -131 0
133 -132 0
131 132 -133 0
-134 -128 0
-134 -133 0
128 133 134 0
-135 -121 0
-135 134 0
121 -134 135 0
-72 135 -136 0
72 -135 -136 0
-72 -135 136 0
72 135 136 0
-50 136 -137 0
50 -136 -137 0
-50 -136 137 0
50 136 137 0
-132 -7 55 0
-6 107 0
-49 25 38 -91 -105 55 0
57 -103 17 0
59 -99 -104 40 -11 0
14 105 -118 39 127 0
-113 30 0
-52 57 3 111 0
104 -124 0
22 -86 -81 -85 0
-53 82 -84 117 -33 0
77 -104 -129 -93 0
67 -12 -49 28 51 0
137 83 -89 101 -123 37 0
137 81 -38 0
-121 18 0
-104 61 93 121 4 81 0
-93 114 -42 0
-137 51 115 0
81 122 -73 0
-39 26 116 -68 54 0
53 38 0
-7 -130 62 135 0
81 -36 48 0
98 39 -18 1 103 0
-134 66 -4 68 0
115 30 6 -89 -3 0
121 -48 -92 -22 -24 0
-89 -83 56 106 -13 0
40 56 120 -21 -39 -79 0
-124 90 0
-109 -95 124 -105 6 0
108 55 0
97 -69 136 -60 98 110 0
51 -79 38 -129 0
-55 9 -33 0
-88 32 118 -7 -70 8 0
-46 68 50 0
-74 -98 -94 -70 -71 0
-66 -37 0
83 -1 118 0
-57 -91 -101 -55 0
-127 18 75 0
-73 14 0
-60 -20 99 86 100 0
-76 -81 -45 100 -50 -130 0
50 -56 -70 0
-64 -36 -80 0
116 132 60 100 0
63 62 89 95 0
-1 120 -75 105 21 0
-112 -47 0
-86 74 112 27 -75 0
-135 -28 0
112 86 0
26 43 -72 48 57 0
91 -135 0
134 1 0
-57 -98 86 90 -104 23 0
-88 -13 -37 39 0
137 0
